# Solution for model es60fst02
# Objective value = 84
x#1 0
x#2 1
x#3 1
x#4 1
x#5 1
x#6 1
x#7 1
x#8 1
x#9 1
x#10 0
x#11 0
x#12 1
x#13 1
x#14 0
x#15 0
x#16 1
x#17 1
x#18 1
x#19 0
x#20 0
x#21 1
x#22 0
x#23 1
x#24 1
x#25 0
x#26 0
x#27 1
x#28 0
x#29 1
x#30 0
x#31 1
x#32 0
x#33 1
x#34 1
x#35 1
x#36 1
x#37 0
x#38 1
x#39 0
x#40 1
x#41 0
x#42 1
x#43 0
x#44 1
x#45 1
x#46 0
x#47 0
x#48 0
x#49 0
x#50 1
x#51 0
x#52 0
x#53 0
x#54 1
x#55 1
x#56 0
x#57 0
x#58 1
x#59 0
x#60 0
x#61 0
x#62 0
x#63 1
x#64 0
x#65 0
x#66 0
x#67 1
x#68 0
x#69 0
x#70 1
x#71 0
x#72 1
x#73 0
x#74 0
x#75 1
x#76 1
x#77 0
x#78 0
x#79 1
x#80 0
x#81 0
x#82 0
x#83 1
x#84 0
x#85 1
x#86 1
x#87 1
x#88 0
x#89 1
x#90 0
x#91 1
x#92 1
x#93 0
x#94 1
x#95 1
x#96 1
x#97 0
x#98 0
x#99 0
x#100 1
x#101 0
x#102 0
x#103 1
x#104 0
x#105 1
x#106 1
x#107 0
x#108 0
x#109 1
x#110 0
x#111 0
x#112 0
x#113 0
x#114 1
x#115 1
x#116 0
x#117 1
x#118 0
x#119 0
x#120 1
x#121 0
x#122 1
x#123 0
x#124 1
x#125 1
x#126 1
x#127 1
x#128 0
x#129 1
x#130 0
x#131 0
x#132 1
x#133 0
x#134 0
x#135 1
x#136 0
x#137 1
x#138 0
x#139 1
x#140 1
x#141 0
x#142 0
x#143 1
x#144 0
x#145 1
x#146 0
x#147 0
x#148 0
x#149 1
x#150 1
x#151 1
x#152 1
x#153 1
x#154 0
x#155 1
x#156 0
x#157 0
x#158 0
x#159 0
x#160 0
x#161 0
x#162 1
x#163 1
x#164 0
x#165 0
x#166 1
x#167 0
x#168 1
x#169 0
x#170 0
x#171 1
x#172 0
x#173 0
x#174 1
x#175 0
x#176 1
x#177 0
x#178 0
x#179 0
x#180 0
x#181 0
x#182 0
x#183 0
x#184 0
x#185 0
x#186 0
